<number of tasks>
50

<cycle time>
1000

<order strength>
0.202


<task times>
1 89
2 76
3 147
4 290
5 95
6 94
7 124
8 167
9 223
10 238
11 242
12 66
13 30
14 145
15 195
16 121
17 466
18 33
19 36
20 100
21 163
22 69
23 159
24 106
25 282
26 510
27 287
28 576
29 281
30 106
31 88
32 62
33 496
34 86
35 77
36 116
37 68
38 115
39 352
40 32
41 76
42 508
43 246
44 121
45 473
46 346
47 168
48 556
49 59
50 391

<precedence relations>
2,8
3,10
4,9
5,11
6,7
7,16
8,14
9,12
9,15
10,13
13,28
14,17
14,18
14,19
15,20
16,19
16,21
16,22
17,27
17,30
18,30
19,23
19,24
19,26
19,28
20,25
20,29
23,33
25,31
26,32
30,34
30,35
30,36
30,37
31,40
31,42
32,38
35,41
36,39
37,40
38,48
40,47
40,49
41,43
41,44
41,46
41,50
42,45

<end>
